\ LP format - for model browsing. Use MPS format to capture full model detail.
Maximize
  x[0,0] + x[0,1] + 2 x[1,0] + 2 x[1,1] + 3 x[2,0] + 3 x[2,1] + 4 x[3,0]
   + 4 x[3,1] + 0 y1[1,0] + 0 y1[1,1] + 0 y1[1,2] + 0 y1[1,3] + 0 C16
   + 0 C17 + 0 C18 + 0 C19 + 0 C20
Subject To
 R0: y1[0,0] + y1[0,1] + y1[0,2] + y1[0,3] <= 1
 R1: C21 + C22 + C23 + C24 + C25 <= 1
 R2: x[0,0] + x[0,1] <= 4
 R3: x[1,0] + x[1,1] <= 1
 R4: x[2,0] + x[2,1] <= 2
 R5: x[3,0] + x[3,1] <= 0.8
 R6: x[0,0] - y1[0,2] - 2 y1[0,3] = 0
 R7: x[1,0] - y1[0,2] = 0
 R8: x[2,0] - y1[0,1] = 0
 R9: x[3,0] - y1[0,0] = 0
 R10: x[0,1] - C22 - 3 C24 - C25 = 0
 R11: x[1,1] - 2 C23 - C25 = 0
 R12: x[2,1] - C22 = 0
 R13: x[3,1] - C21 = 0
Bounds
End
